30 5 1 1 111111
20 4 1 7 2 6 4 8 5 9 4 1 6 2 5 3 4 4 8 3 2 3 4 3 5 5 3 1 10 3 8 5 10 4 1 1 2 1 3 1 5 10 4 1 8 3 9 4 9 5 1 4 1 7 3 10 4 3 5 6 4 1 5 2 10 4 10 5 5 3 1 10 4 1 5 6 3 1 8 3 1 4 1 4 1 4 2 7 3 5 4 1 4 2 4 3 4 4 5 5 9 3 1 3 3 7 4 5 4 1 10 2 9 3 10 5 4 3 1 1 3 2 5 1 4 1 3 2 1 3 2 5 4 4 1 3 2 7 3 6 4 9 3 2 3 4 1 5 2 3 1 2 3 7 5 9 4 1 6 2 10 3 4 4 9 
20 3 1 4 2 10 4 10 3 1 10 4 9 5 9 4 1 6 2 4 3 5 4 2 3 3 7 4 9 5 2 4 1 7 2 1 3 6 5 5 4 2 6 3 5 4 6 5 8 4 2 3 3 8 4 8 5 8 4 1 3 3 9 4 2 5 2 4 2 8 3 7 4 10 5 7 4 1 6 2 8 3 4 4 8 3 3 5 4 6 5 3 3 1 2 3 4 5 2 4 1 2 2 3 3 7 5 7 4 2 3 3 2 4 3 5 7 4 1 1 2 5 3 7 5 3 4 1 7 3 8 4 5 5 9 3 1 2 3 8 5 5 3 1 6 2 9 3 2 4 1 5 2 6 3 3 4 7 3 2 1 3 4 4 4 
20 3 1 7 2 6 4 10 4 2 6 3 7 4 2 5 4 3 1 10 3 8 5 9 4 1 5 3 2 4 9 5 3 4 1 10 2 1 4 3 5 5 4 2 5 3 2 4 2 5 10 4 1 4 2 2 3 6 4 4 3 1 10 3 2 5 6 3 2 8 4 8 5 8 4 1 3 2 2 3 3 5 2 3 2 2 3 9 5 4 4 1 9 2 8 3 4 4 3 4 1 10 2 2 3 9 5 9 4 1 7 2 5 3 1 5 5 3 1 7 2 9 4 5 3 3 3 4 8 5 3 3 1 2 2 9 5 1 3 1 1 3 4 5 1 3 1 2 4 5 5 8 3 1 5 4 7 5 8 
20 4 2 10 3 8 4 5 5 8 4 1 1 2 2 3 5 4 4 3 1 7 3 3 5 6 3 2 5 3 5 5 7 3 1 3 2 10 5 4 4 1 4 2 5 3 1 5 8 3 1 5 2 4 4 6 3 1 6 2 10 4 4 3 1 2 2 10 5 3 3 2 8 3 3 5 6 4 1 4 2 6 3 9 5 7 3 2 1 3 3 4 8 3 3 3 4 2 5 3 4 1 9 2 6 3 3 4 5 4 1 2 2 8 4 6 5 5 3 2 6 4 4 5 2 3 2 5 4 2 5 10 4 1 8 2 4 3 1 5 7 3 2 4 3 2 5 8 3 1 8 3 9 5 4 
20 3 1 2 3 10 4 7 3 1 8 4 5 5 10 3 2 1 3 4 4 9 3 1 10 3 4 4 10 4 1 9 2 1 4 10 5 7 4 1 10 2 5 3 1 5 9 3 2 6 3 4 5 2 4 1 4 2 5 3 3 5 1 4 2 3 3 7 4 1 5 8 3 2 2 4 6 5 6 3 1 7 3 10 4 9 4 1 5 2 2 3 9 5 5 4 1 3 2 6 4 6 5 1 3 1 3 2 3 4 3 3 3 3 4 5 5 1 4 1 9 2 5 4 3 5 7 4 1 7 3 7 4 8 5 6 4 1 5 2 6 3 10 4 5 4 2 9 3 1 4 1 5 8 4 1 4 2 9 3 5 4 8 
20 4 1 5 2 3 3 9 4 7 3 2 8 3 4 4 7 3 1 2 3 7 5 6 4 1 7 3 10 4 2 5 9 3 3 5 4 4 5 7 4 1 5 2 9 3 10 5 9 4 1 2 2 7 4 2 5 8 4 1 5 3 7 4 5 5 5 4 2 4 3 5 4 3 5 9 3 3 1 4 9 5 1 4 1 8 2 6 4 2 5 1 3 1 5 2 10 4 3 4 1 3 2 4 3 9 4 7 3 1 1 2 1 4 2 4 1 8 2 6 3 6 5 3 3 1 7 3 5 5 2 3 2 4 4 8 5 1 3 2 4 3 4 5 7 3 3 7 4 9 5 1 3 1 9 2 6 4 10 
20 3 1 3 2 9 4 10 3 1 7 2 2 3 1 3 1 7 4 7 5 5 3 1 6 2 4 4 6 4 1 9 2 9 4 7 5 7 3 2 7 3 9 4 1 4 1 5 2 5 3 5 5 6 3 1 5 3 7 5 5 3 1 8 2 3 3 6 3 1 9 2 2 3 4 3 2 7 4 4 5 1 3 1 6 2 1 4 2 4 1 2 2 10 3 5 5 3 4 2 9 3 2 4 8 5 9 4 1 3 2 10 3 1 4 3 4 1 7 2 8 3 5 5 5 3 1 9 2 10 5 3 3 1 2 2 6 4 2 4 1 5 3 2 4 6 5 8 3 2 10 3 9 5 9 
20 3 1 9 2 7 5 7 3 2 3 3 3 5 5 4 1 3 2 8 3 7 5 7 4 1 5 2 3 3 5 4 1 4 1 8 2 2 3 3 5 6 4 2 2 3 7 4 10 5 4 4 1 4 2 2 3 6 4 3 4 1 6 2 9 4 10 5 3 4 1 4 2 6 3 6 4 1 3 1 8 2 4 3 8 4 1 4 2 3 4 1 5 2 4 1 7 2 7 4 2 5 6 3 1 9 3 3 5 9 3 2 9 3 3 4 1 4 1 5 2 10 3 6 4 7 4 1 2 2 6 3 10 4 6 4 1 10 2 7 4 10 5 9 3 1 4 2 10 5 8 4 1 3 2 5 4 1 5 8 4 1 2 2 9 3 7 4 7 
20 3 2 8 3 7 5 10 3 1 2 2 6 5 2 4 1 1 2 3 4 6 5 8 3 1 4 2 9 5 9 3 1 7 2 6 4 6 4 1 10 2 9 4 10 5 7 4 1 6 2 5 4 7 5 7 3 1 5 2 10 3 2 4 1 1 2 8 3 7 4 10 4 1 7 3 5 4 4 5 6 4 1 10 2 6 3 9 4 9 3 2 6 3 2 5 1 4 1 2 2 5 3 6 5 4 3 1 1 2 5 3 10 4 2 3 3 6 4 2 5 7 3 2 4 3 5 4 2 3 2 4 4 9 5 4 3 1 7 2 10 5 1 3 2 3 3 2 4 9 4 1 9 2 7 3 6 5 7 
20 4 1 1 2 9 3 9 4 2 3 1 10 3 4 4 6 4 1 6 2 10 4 3 5 1 4 2 10 3 6 4 5 5 1 4 1 1 2 6 3 1 5 6 4 2 5 3 10 4 9 5 8 4 1 5 2 2 3 2 4 7 4 2 9 3 1 4 8 5 2 4 1 10 3 5 4 1 5 5 3 2 4 4 2 5 4 4 1 8 3 3 4 2 5 2 4 2 1 3 2 4 2 5 10 3 1 2 4 6 5 8 4 1 10 2 6 4 7 5 8 3 1 1 2 5 5 7 4 1 10 3 3 4 8 5 5 4 1 10 3 10 4 9 5 7 3 3 7 4 8 5 8 4 2 2 3 9 4 6 5 10 4 1 1 2 8 3 3 5 5 
20 3 1 8 3 4 4 10 3 1 5 2 2 4 1 4 1 3 2 6 3 10 4 6 4 1 3 3 9 4 1 5 2 4 1 4 2 7 4 7 5 8 4 1 3 2 2 3 8 5 5 4 1 1 2 9 3 3 5 7 4 1 7 2 9 4 7 5 6 3 2 1 3 8 5 10 4 1 8 2 7 3 4 5 6 4 1 7 2 6 3 3 4 6 3 1 8 4 3 5 7 4 1 6 2 7 3 1 5 2 3 2 9 3 1 5 1 3 1 5 3 7 4 10 3 1 6 4 4 5 9 4 2 4 3 1 4 7 5 9 3 1 8 3 7 5 4 3 1 7 2 5 5 9 3 2 8 3 8 5 5 
20 3 1 3 3 7 4 4 3 1 6 2 8 5 6 4 2 8 3 8 4 9 5 3 3 1 9 3 2 4 9 4 2 6 3 7 4 5 5 8 3 2 6 4 10 5 2 4 1 1 3 3 4 8 5 7 4 1 6 3 7 4 2 5 2 4 1 1 2 2 4 6 5 7 4 1 6 2 8 3 3 4 5 3 3 8 4 8 5 4 4 2 5 3 10 4 4 5 7 4 1 7 2 2 3 10 5 1 3 2 3 3 7 4 6 3 1 2 2 7 5 5 3 1 2 3 7 4 1 4 1 8 2 2 4 4 5 4 4 1 6 2 3 3 2 5 5 4 1 8 2 1 3 7 4 5 3 1 5 4 4 5 4 
20 4 1 4 2 10 3 10 4 4 3 2 10 4 4 5 4 4 2 10 3 2 4 10 5 4 4 1 10 3 7 4 9 5 1 4 1 2 2 2 3 2 4 5 3 1 9 2 7 5 7 4 2 1 3 5 4 2 5 2 3 2 9 3 7 5 8 3 2 9 3 1 5 1 3 3 9 4 7 5 9 3 1 5 2 8 4 8 4 1 3 2 8 3 2 4 4 3 2 9 3 6 5 2 3 2 8 3 3 4 3 3 1 6 2 10 4 1 3 2 4 3 4 5 8 4 1 7 2 9 3 7 4 3 3 1 10 3 4 5 6 3 1 10 2 6 5 3 3 2 6 3 6 5 1 
20 4 1 6 3 7 4 9 5 6 3 1 1 2 8 4 2 3 2 3 3 1 4 1 3 3 6 4 2 5 6 3 2 7 3 6 4 1 4 1 9 3 1 4 1 5 8 3 1 9 4 7 5 8 3 1 1 3 6 4 4 4 1 5 3 4 4 2 5 2 3 1 6 2 10 4 2 4 1 2 2 6 4 5 5 7 4 1 6 2 9 3 1 4 10 4 1 9 2 3 3 9 4 10 4 1 6 3 10 4 3 5 10 3 2 8 3 1 4 5 3 2 6 4 5 5 9 4 1 4 3 1 4 10 5 10 3 3 5 4 5 5 3 3 2 6 4 6 5 6 3 2 1 4 1 5 10 
20 4 1 7 2 5 3 7 4 2 4 2 5 3 2 4 10 5 3 4 2 4 3 4 4 5 5 8 4 1 8 2 5 4 8 5 5 4 1 4 3 10 4 10 5 7 4 1 5 2 9 4 9 5 2 4 1 6 3 3 4 5 5 4 3 1 8 2 10 5 9 4 1 4 2 4 3 5 4 9 4 1 4 2 6 3 5 4 2 3 1 6 3 6 4 3 4 1 2 2 3 4 10 5 9 4 1 5 2 6 3 5 5 3 4 2 1 3 2 4 6 5 4 4 1 9 2 5 4 4 5 4 4 1 9 3 4 4 9 5 3 3 1 1 4 10 5 4 4 1 9 2 8 4 3 5 3 4 1 9 2 6 3 1 5 2 3 1 9 2 5 3 9 
20 4 1 3 2 4 3 2 4 8 4 1 7 2 8 4 6 5 9 4 1 5 3 3 4 4 5 2 3 1 2 3 7 5 7 3 3 6 4 5 5 1 3 1 10 2 2 4 3 3 1 3 4 8 5 2 4 1 7 3 7 4 5 5 5 4 1 4 2 10 4 6 5 4 4 2 6 3 5 4 2 5 6 4 1 2 2 5 3 1 4 3 3 1 10 2 6 5 10 4 1 10 2 5 3 3 4 8 3 1 4 2 7 4 6 4 1 4 2 4 3 6 5 8 3 1 2 2 3 3 10 4 1 5 2 5 3 4 5 2 3 1 1 3 9 5 4 3 1 7 4 4 5 1 3 1 2 2 2 5 5 
20 4 2 8 3 7 4 4 5 1 3 2 7 3 2 5 2 4 1 7 2 4 4 2 5 7 3 1 8 2 2 5 1 4 1 10 2 6 3 8 4 5 4 1 3 2 3 3 10 4 3 4 2 6 3 9 4 1 5 2 4 1 3 3 10 4 1 5 1 4 1 6 3 5 4 3 5 8 4 1 4 2 3 3 1 5 6 3 2 3 3 7 5 1 3 1 4 3 7 5 1 3 2 9 3 7 5 3 3 2 5 3 8 5 3 3 2 8 4 4 5 10 3 2 9 3 8 4 6 3 2 4 4 5 5 6 3 1 7 4 7 5 9 4 1 8 2 2 4 1 5 9 4 2 7 3 3 4 10 5 6 
20 3 1 4 3 6 5 7 3 1 4 2 3 5 5 4 1 8 2 10 3 7 4 6 3 1 2 2 3 3 2 4 1 3 2 9 3 8 5 6 3 3 1 4 1 5 3 4 1 8 2 8 4 7 5 8 3 3 6 4 8 5 3 3 1 4 4 2 5 4 3 1 4 4 1 5 10 3 2 2 3 7 5 4 4 1 10 2 9 4 2 5 4 3 1 6 2 10 5 7 3 2 1 4 5 5 4 3 2 10 3 6 4 2 3 2 9 4 8 5 10 4 1 6 2 2 3 5 5 5 4 1 3 2 1 4 6 5 1 4 2 10 3 4 4 10 5 4 4 2 5 3 3 4 10 5 8 
20 4 2 2 3 1 4 6 5 6 4 1 3 2 10 3 3 5 6 4 1 9 3 6 4 7 5 2 3 1 2 2 6 4 5 4 1 4 2 10 4 3 5 8 3 2 2 3 10 5 6 3 2 10 4 1 5 3 3 1 3 4 3 5 2 3 2 4 4 7 5 8 3 3 2 4 1 5 7 4 1 9 2 10 3 7 4 4 4 1 8 2 6 3 5 5 3 4 2 7 3 10 4 4 5 7 3 1 6 3 4 4 9 3 1 10 4 8 5 5 3 2 7 3 6 4 7 3 3 8 4 2 5 3 4 2 4 3 4 4 6 5 9 4 1 1 2 7 3 7 4 6 4 1 2 2 7 3 2 5 10 
20 3 3 5 4 5 5 9 3 2 7 3 5 5 9 3 1 4 2 7 4 10 4 2 7 3 10 4 7 5 10 3 1 9 2 7 4 4 4 1 10 2 5 3 8 5 8 3 1 7 2 2 4 9 4 1 2 3 2 4 5 5 10 4 1 9 3 10 4 3 5 9 4 1 1 3 8 4 8 5 9 3 1 6 2 8 4 4 3 2 1 3 1 4 10 3 2 4 4 1 5 4 4 2 10 3 10 4 10 5 8 3 3 1 4 1 5 4 3 1 2 3 1 5 1 4 1 5 2 9 3 8 4 10 4 1 10 2 2 3 10 4 8 3 1 10 3 3 4 7 4 2 8 3 10 4 9 5 7 
20 4 1 6 2 1 4 3 5 7 4 1 3 2 8 3 7 4 4 3 1 7 2 7 4 6 4 1 7 3 6 4 3 5 6 3 2 10 3 6 5 8 3 3 10 4 2 5 2 3 1 6 4 3 5 1 3 1 6 2 5 3 5 3 1 3 2 7 5 6 4 1 4 2 4 3 7 5 7 4 1 9 2 5 3 4 5 1 4 1 4 3 2 4 4 5 9 4 1 4 2 1 4 4 5 1 4 1 1 2 6 3 8 5 10 4 2 7 3 1 4 8 5 2 4 1 9 2 9 4 6 5 7 3 1 1 2 9 3 2 4 1 5 2 9 3 4 4 10 4 1 2 2 5 3 1 4 7 3 2 7 3 7 4 8 
20 3 1 4 2 2 4 8 4 1 5 2 2 3 10 5 5 3 1 1 2 2 3 10 3 1 10 4 1 5 4 4 2 4 3 9 4 5 5 1 4 2 6 3 4 4 10 5 9 4 1 2 3 1 4 1 5 10 4 1 4 2 1 3 2 4 5 3 1 7 2 9 5 9 4 1 7 3 8 4 6 5 9 3 2 2 4 9 5 4 4 1 7 2 7 3 5 5 1 3 1 10 3 6 4 9 3 2 7 3 9 4 10 4 2 4 3 7 4 10 5 8 4 1 2 2 3 4 4 5 2 4 1 5 3 3 4 7 5 10 4 1 2 2 10 3 5 5 2 4 1 1 2 7 3 5 5 1 4 1 9 2 10 3 1 5 2 
20 4 2 2 3 1 4 7 5 3 3 2 3 3 8 4 5 3 2 10 4 2 5 2 4 1 1 2 7 3 2 5 9 3 2 10 4 10 5 8 4 1 3 2 2 3 4 5 5 4 1 1 3 4 4 4 5 7 4 1 7 2 2 4 2 5 3 3 2 1 3 10 5 3 4 1 7 2 7 3 7 4 8 4 1 9 2 9 4 4 5 7 4 1 7 2 5 3 8 5 4 4 1 1 3 4 4 5 5 6 3 3 3 4 3 5 8 3 1 7 3 8 4 8 4 1 2 2 2 3 6 4 5 3 2 9 3 4 5 3 4 2 2 3 5 4 9 5 9 4 1 6 3 6 4 1 5 6 3 1 3 4 5 5 9 
20 3 2 2 4 3 5 6 4 1 9 2 7 3 10 5 6 4 1 5 2 3 4 6 5 8 4 1 9 2 5 3 9 4 9 4 1 10 2 5 3 10 4 9 4 2 10 3 6 4 3 5 5 4 1 6 2 9 3 7 5 5 3 1 1 2 9 3 2 4 2 10 3 10 4 4 5 5 3 2 7 4 2 5 10 4 1 5 2 6 3 9 4 2 4 1 8 3 6 4 9 5 7 4 1 6 2 8 3 10 5 10 3 1 8 2 9 3 2 3 1 7 2 8 4 4 3 1 7 2 4 4 10 3 1 10 3 8 4 2 3 3 5 4 3 5 6 4 2 5 3 4 4 9 5 4 4 1 9 2 2 4 8 5 6 
20 4 1 7 2 8 4 1 5 5 3 1 8 3 4 4 7 3 3 9 4 9 5 8 4 1 9 2 7 4 7 5 8 4 2 1 3 1 4 8 5 5 4 1 7 2 2 3 1 5 9 4 1 5 2 7 3 1 5 6 4 1 1 2 8 3 2 4 3 3 1 6 3 2 5 5 3 1 7 4 4 5 10 4 1 3 2 2 4 7 5 1 4 2 2 3 5 4 9 5 9 4 2 10 3 9 4 7 5 7 3 1 3 3 8 4 3 4 2 1 3 2 4 1 5 4 4 1 10 3 10 4 7 5 6 4 1 9 2 7 3 3 4 4 4 1 4 3 7 4 9 5 8 4 1 7 2 9 4 1 5 2 3 1 6 2 2 4 3 
20 3 1 8 2 8 4 8 4 1 5 2 10 4 9 5 10 4 2 9 3 5 4 8 5 10 4 1 3 2 8 3 7 4 3 3 2 3 3 4 5 1 3 1 6 2 3 4 7 3 1 8 4 6 5 3 4 1 3 2 2 3 1 4 7 4 1 7 2 3 3 3 5 1 3 2 2 3 1 4 3 4 1 10 2 6 4 10 5 6 3 3 6 4 5 5 5 4 2 6 3 2 4 2 5 1 3 1 1 3 4 5 9 4 1 9 2 2 3 1 5 2 4 1 4 2 10 3 1 4 2 4 1 4 3 9 4 2 5 1 4 1 3 2 10 3 6 4 10 4 1 1 3 3 4 2 5 5 3 1 4 2 3 5 4 
20 3 3 7 4 10 5 8 4 2 5 3 3 4 2 5 4 4 1 9 2 5 3 5 4 8 4 1 6 3 3 4 4 5 10 4 1 10 2 7 3 6 4 5 3 1 5 3 4 5 3 4 1 4 2 5 4 10 5 4 4 2 10 3 4 4 8 5 1 3 1 8 2 8 5 2 3 2 10 4 8 5 8 4 1 10 2 7 3 3 4 3 4 1 2 3 2 4 9 5 8 4 1 8 3 2 4 1 5 9 3 1 8 3 3 5 9 4 1 8 3 8 4 4 5 5 3 1 9 3 8 5 2 4 1 9 2 8 4 7 5 4 4 2 7 3 6 4 1 5 2 3 1 8 2 2 5 3 4 1 3 3 7 4 9 5 8 
20 4 1 9 2 6 4 7 5 9 4 1 7 3 8 4 10 5 9 4 1 1 2 2 3 9 4 2 3 1 3 2 1 3 8 3 2 8 4 6 5 3 3 1 5 3 6 4 1 3 1 6 4 10 5 1 4 1 1 2 5 3 3 5 10 4 2 10 3 4 4 3 5 5 4 1 3 2 2 4 10 5 5 4 1 2 3 2 4 7 5 6 3 3 9 4 1 5 8 4 1 2 2 6 3 10 5 10 4 1 2 2 8 3 9 5 2 4 2 8 3 7 4 3 5 4 3 3 4 4 8 5 5 4 1 8 2 9 4 10 5 3 3 1 4 2 1 3 2 4 1 3 2 9 3 10 4 9 3 1 9 2 1 5 5 
20 3 2 5 4 1 5 8 4 1 4 2 10 3 7 4 10 4 1 5 2 3 3 2 4 1 4 1 5 3 1 4 6 5 5 3 2 4 4 1 5 8 3 2 9 4 4 5 1 4 1 9 2 3 3 2 5 8 4 1 10 2 3 3 10 4 5 4 1 9 2 5 4 1 5 10 4 1 4 2 6 4 5 5 1 3 2 7 3 10 4 3 3 1 6 2 1 4 3 4 2 2 3 7 4 6 5 8 3 1 10 2 9 5 2 3 1 1 4 1 5 8 3 1 4 2 1 4 10 3 1 4 2 10 3 10 3 2 3 3 4 5 3 4 1 7 2 3 3 5 4 9 4 1 3 2 10 3 9 4 2 
20 4 1 5 3 5 4 1 5 8 3 1 1 2 7 3 1 3 2 10 3 7 5 2 4 1 8 2 4 3 5 5 9 3 1 6 3 7 4 7 3 2 10 3 1 5 7 3 1 5 3 10 5 9 3 2 8 4 7 5 9 3 1 8 3 9 5 6 4 1 4 2 1 4 10 5 8 4 1 3 2 7 3 5 5 4 4 2 5 3 9 4 5 5 9 3 1 6 2 1 3 6 3 2 8 4 5 5 2 3 2 6 3 3 5 5 3 3 3 4 4 5 3 4 1 6 2 3 4 8 5 9 3 2 5 3 3 4 2 4 1 4 2 7 4 7 5 7 3 2 6 4 2 5 7 
0 3 1 2 3 
1 0 3 4 5 7 
1 0 3 4 5 7 
1 0 3 4 5 7 
3 1 2 3 3 6 9 15 
3 1 2 3 3 6 9 15 
2 5 4 2 8 12 
3 1 3 2 3 8 9 15 
2 6 7 2 11 14 
3 7 4 5 3 11 12 13 
0 3 11 12 13 
3 8 9 10 1 16 
3 6 10 9 3 14 16 18 
2 10 9 3 17 18 19 
2 12 8 2 17 19 
3 4 5 7 3 16 18 19 
3 12 15 11 1 17 
3 16 14 13 0 
3 12 13 15 0 
3 13 14 15 0 
0 3 22 23 24 
0 3 22 23 24 
2 20 21 3 25 27 29 
2 20 21 3 25 27 29 
2 21 20 3 25 27 33 
3 24 23 22 3 26 30 31 
1 25 3 32 34 35 
3 24 23 22 3 30 31 32 
0 2 29 31 
3 22 28 23 3 30 32 33 
3 29 25 27 1 34 
3 27 25 28 1 35 
3 27 29 26 2 36 37 
2 29 24 2 34 35 
3 26 33 30 2 36 37 
3 31 26 33 2 36 37 
3 32 34 35 1 38 
3 35 34 32 1 38 
2 36 37 1 39 
1 38 0 
0 3 42 43 49 
0 3 42 43 49 
2 40 41 3 44 45 47 
2 41 40 3 44 45 47 
2 42 43 2 46 56 
2 42 43 2 46 56 
2 44 45 3 50 51 53 
2 42 43 3 50 51 53 
0 3 49 53 56 
3 41 48 40 3 50 51 57 
3 47 46 49 3 52 54 58 
3 46 49 47 3 52 54 58 
2 51 50 2 55 59 
3 48 46 47 2 54 57 
3 51 53 50 2 55 59 
2 52 54 0 
3 48 44 45 1 57 
3 49 56 53 2 58 59 
3 51 57 50 0 
3 54 57 52 0 
0 3 61 63 65 
1 60 3 62 64 68 
1 61 3 69 75 77 
1 60 3 64 68 77 
2 61 63 3 67 69 75 
1 60 2 67 70 
0 3 67 68 77 
3 66 64 65 2 71 79 
3 66 63 61 3 69 75 79 
3 62 64 68 2 70 71 
2 69 65 3 72 73 74 
2 67 69 3 72 73 74 
2 71 70 2 76 78 
2 71 70 2 76 78 
2 71 70 2 76 78 
3 62 68 64 0 
3 74 72 73 0 
3 66 63 62 1 79 
3 74 73 72 0 
3 68 67 77 0 
0 3 82 84 87 
0 3 82 84 87 
2 81 80 3 83 90 98 
1 82 3 85 88 92 
2 80 81 3 85 88 90 
2 83 84 2 89 95 
0 3 87 88 89 
3 81 86 80 3 90 93 95 
3 86 84 83 3 91 93 95 
2 85 86 3 91 93 99 
3 87 82 84 3 91 92 94 
3 89 88 90 2 96 97 
2 83 90 0 
3 87 89 88 2 94 97 
2 93 90 1 96 
3 87 85 88 3 96 97 99 
3 95 94 91 0 
3 93 95 91 0 
1 82 1 99 
3 95 89 98 0 
0 3 102 103 112 
0 3 102 103 112 
2 100 101 2 104 106 
2 100 101 3 104 105 106 
2 102 103 3 107 109 110 
1 103 3 107 110 113 
2 102 103 3 107 109 110 
3 106 104 105 2 114 115 
0 3 109 112 113 
3 104 106 108 1 117 
3 106 105 104 3 111 114 115 
1 110 3 116 118 119 
3 100 108 101 2 117 118 
2 105 108 3 114 115 117 
3 110 107 113 3 116 118 119 
3 107 113 110 2 116 119 
3 115 114 111 0 
3 113 109 112 0 
3 114 112 111 0 
3 111 114 115 0 
0 3 122 123 131 
0 3 122 123 131 
2 121 120 3 124 127 128 
2 120 121 3 124 127 128 
2 122 123 3 125 132 137 
1 124 2 126 129 
1 125 3 130 133 138 
2 123 122 3 129 132 137 
2 123 122 2 129 137 
3 125 127 128 3 130 133 139 
2 129 126 2 134 136 
2 121 120 2 132 133 
3 131 124 127 3 134 136 139 
3 126 129 131 2 134 136 
3 130 132 133 0 
0 1 138 
3 130 133 132 0 
3 124 127 128 1 138 
3 126 135 137 1 139 
3 129 138 132 0 
0 3 142 143 147 
0 3 142 143 147 
2 141 140 3 144 145 146 
2 141 140 3 144 145 146 
2 143 142 3 149 150 153 
2 143 142 3 151 153 156 
2 143 142 2 149 152 
2 141 140 3 150 152 156 
0 3 149 150 152 
3 148 144 146 3 151 154 156 
3 147 148 144 3 151 154 159 
3 150 149 145 2 155 157 
3 148 146 147 2 153 159 
3 144 152 145 1 154 
3 153 150 149 2 155 157 
2 154 151 1 158 
3 147 149 145 2 157 159 
3 154 156 151 1 158 
2 157 155 0 
3 152 150 156 0 
0 3 162 164 165 
0 1 162 
2 160 161 3 163 167 172 
1 162 2 166 168 
1 160 3 166 167 168 
1 160 3 166 167 168 
3 165 163 164 3 169 170 171 
3 164 162 165 3 169 170 171 
3 165 163 164 3 169 170 171 
3 168 166 167 3 173 174 176 
3 168 166 167 3 174 175 176 
3 168 167 166 3 173 174 175 
1 162 2 173 176 
3 171 172 169 1 178 
3 171 170 169 2 177 179 
2 171 170 3 177 178 179 
3 172 169 170 3 177 178 179 
3 175 176 174 0 
3 173 175 176 0 
3 176 175 174 0 
0 3 181 183 185 
1 180 2 184 188 
0 3 183 184 185 
2 182 180 3 187 188 189 
2 181 182 3 187 189 190 
2 182 180 2 187 190 
0 3 188 189 190 
3 183 185 184 3 191 192 197 
3 181 186 183 3 191 192 199 
3 184 183 186 3 191 192 197 
3 186 185 184 3 193 196 197 
3 187 188 189 2 193 196 
3 187 189 188 2 193 196 
3 190 191 192 2 194 195 
1 193 0 
1 193 1 198 
3 191 192 190 1 198 
3 189 190 187 2 198 199 
3 195 196 197 0 
2 188 197 0 
0 3 202 203 208 
0 3 202 203 208 
2 200 201 3 204 206 209 
2 201 200 3 204 206 209 
2 202 203 2 205 219 
1 204 3 207 212 213 
2 202 203 3 207 212 213 
2 206 205 3 210 211 218 
2 200 201 3 209 210 213 
3 203 202 208 3 211 212 219 
2 208 207 3 214 215 216 
2 207 209 3 214 215 216 
3 205 209 206 3 215 216 218 
3 205 208 206 3 214 217 218 
3 211 210 213 0 
3 211 210 212 1 217 
3 210 211 212 1 217 
3 216 213 215 0 
3 212 207 213 0 
2 204 209 0 
0 3 223 226 227 
0 3 223 226 227 
0 3 223 226 227 
3 220 222 221 3 224 225 232 
1 223 3 229 234 236 
1 223 3 228 229 234 
3 222 220 221 3 228 231 232 
3 221 220 222 3 228 229 232 
3 226 225 227 3 230 233 236 
3 225 224 227 3 230 231 237 
2 229 228 2 235 238 
2 229 226 1 233 
3 223 227 226 3 233 234 236 
3 231 228 232 2 235 238 
3 232 225 224 2 235 237 
3 233 234 230 1 239 
3 224 232 228 1 237 
3 229 236 234 1 238 
3 237 230 233 1 239 
2 238 235 0 
0 3 241 242 252 
1 240 3 243 245 250 
1 240 3 243 245 250 
2 241 242 3 247 248 249 
0 3 245 250 252 
3 244 241 242 3 247 248 249 
0 3 247 248 249 
3 245 243 246 3 253 254 255 
3 243 245 246 3 251 255 256 
3 243 245 246 3 251 255 256 
3 244 241 242 3 251 256 258 
3 248 250 249 3 253 254 257 
2 240 244 3 253 254 257 
3 251 247 252 0 
3 251 247 252 1 259 
3 248 249 247 1 258 
3 250 248 249 1 257 
3 256 252 251 1 259 
2 250 255 0 
2 254 257 0 
0 2 263 266 
0 3 263 265 266 
0 3 263 265 266 
3 260 261 262 3 264 268 269 
1 263 3 267 274 276 
2 262 261 3 267 268 269 
3 260 261 262 3 267 268 269 
3 264 266 265 3 270 271 278 
3 263 266 265 3 270 271 274 
3 263 265 266 3 270 271 274 
3 267 268 269 3 272 273 275 
3 267 269 268 2 272 275 
2 270 271 2 277 279 
1 270 2 277 279 
3 269 264 268 3 275 277 278 
3 270 274 271 0 
1 264 1 279 
3 273 274 272 0 
2 267 274 0 
3 276 272 273 0 
0 3 283 284 289 
0 3 283 284 289 
0 3 283 284 289 
3 281 280 282 2 288 291 
3 281 282 280 3 285 288 291 
1 284 3 286 287 292 
1 285 3 290 294 296 
1 285 3 290 294 296 
2 283 284 2 290 292 
3 280 281 282 2 291 294 
3 286 287 288 3 293 295 297 
3 284 289 283 2 292 297 
3 285 291 288 3 293 295 296 
2 292 290 2 298 299 
3 287 286 289 2 295 297 
3 290 292 294 2 298 299 
3 287 286 292 2 298 299 
3 291 290 294 0 
3 295 296 293 0 
3 295 296 293 0 
0 3 301 302 304 
1 300 3 303 306 307 
1 300 3 303 306 307 
2 301 302 3 305 309 310 
1 300 3 305 306 307 
2 303 304 2 308 315 
3 301 304 302 3 308 309 310 
3 301 304 302 3 308 309 310 
3 305 307 306 3 311 313 314 
3 307 303 306 3 311 315 319 
3 303 306 307 3 311 313 314 
3 308 310 309 1 317 
0 3 313 314 315 
3 310 308 312 2 316 317 
3 308 310 312 3 316 317 319 
3 309 305 312 1 316 
3 314 315 313 0 
3 313 314 311 0 
0 1 319 
3 309 318 314 0 
0 3 323 326 327 
0 3 323 326 327 
0 3 323 326 327 
3 322 321 320 3 324 325 328 
1 323 3 330 331 332 
1 323 3 329 331 332 
3 320 321 322 3 328 329 330 
3 322 321 320 2 329 330 
2 323 326 2 331 332 
3 327 326 325 3 333 334 335 
3 327 324 326 3 333 334 336 
3 324 328 325 3 333 335 337 
3 325 324 328 2 334 335 
3 329 331 330 2 338 339 
3 329 332 330 2 337 339 
3 331 332 329 2 336 339 
2 335 330 1 338 
2 331 334 1 338 
3 336 337 333 0 
3 334 335 333 0 
0 3 341 344 351 
1 340 3 342 347 356 
1 341 3 345 349 353 
0 3 344 351 356 
2 343 340 3 345 347 353 
2 344 342 3 346 348 352 
1 345 3 350 354 355 
2 344 341 3 348 349 350 
2 345 347 2 357 358 
2 342 347 3 352 354 355 
2 346 347 0 
2 340 343 3 352 353 354 
3 345 349 351 0 
3 344 351 342 2 355 358 
3 346 349 351 2 357 358 
3 346 349 353 0 
2 341 343 2 357 359 
3 348 356 354 0 
3 353 348 354 0 
1 356 0 
0 2 363 366 
0 3 363 364 366 
0 3 363 364 366 
3 361 360 362 3 365 367 368 
2 361 362 3 365 367 368 
2 364 363 3 369 370 371 
3 362 360 361 3 367 368 372 
3 366 363 364 3 369 370 371 
3 364 363 366 3 369 370 371 
3 367 368 365 3 373 375 376 
3 367 368 365 2 373 375 
3 368 365 367 2 373 376 
1 366 3 374 375 376 
3 370 371 369 2 374 378 
2 373 372 1 377 
3 369 370 372 2 377 378 
3 369 371 372 2 377 378 
3 374 376 375 0 
3 373 375 376 1 379 
1 378 0 
0 2 383 384 
0 2 384 385 
0 3 383 384 385 
2 380 382 2 386 387 
3 382 380 381 2 386 387 
2 381 382 3 386 387 388 
3 385 383 384 3 389 390 391 
3 383 385 384 2 389 391 
1 385 3 389 390 391 
3 388 386 387 3 392 394 395 
2 388 386 3 392 394 395 
3 388 386 387 3 392 394 395 
3 390 389 391 3 393 397 398 
1 392 2 396 399 
3 390 389 391 3 396 397 398 
3 390 389 391 3 396 397 398 
3 394 393 395 0 
3 394 392 395 1 399 
3 395 394 392 1 399 
3 393 397 398 0 
0 3 401 402 403 
1 400 3 404 407 409 
1 400 2 404 406 
1 400 3 404 406 407 
3 401 403 402 3 408 410 416 
0 3 406 407 408 
3 403 405 402 3 409 411 412 
3 403 405 401 3 410 411 412 
2 404 405 3 411 412 414 
2 401 406 2 410 416 
3 409 404 407 2 414 415 
3 407 406 408 1 418 
3 406 408 407 1 415 
0 3 414 415 416 
3 408 413 410 2 417 419 
3 412 413 410 2 417 418 
3 413 409 404 2 417 418 
3 416 415 414 0 
3 411 415 416 1 419 
2 414 418 0 
0 3 421 423 435 
1 420 3 422 427 434 
1 421 3 425 426 429 
1 420 3 425 426 427 
0 3 425 426 427 
3 423 424 422 2 432 436 
3 423 422 424 3 430 431 432 
3 424 421 423 3 429 430 431 
0 3 429 430 431 
3 422 427 428 3 432 436 438 
3 426 428 427 2 433 439 
3 427 426 428 2 433 437 
3 429 426 425 2 433 437 
3 431 432 430 0 
1 421 3 436 437 438 
1 420 2 438 439 
3 425 429 434 0 
3 432 434 431 1 439 
3 434 429 435 0 
3 437 430 435 0 
0 3 441 445 453 
1 440 3 443 447 456 
0 3 443 445 447 
2 441 442 2 444 459 
1 443 3 446 449 451 
2 442 440 3 446 449 451 
2 444 445 3 450 457 458 
2 441 442 3 449 451 459 
0 3 450 453 456 
3 444 445 447 3 450 457 458 
3 449 448 446 3 452 454 455 
3 445 444 447 3 452 454 455 
2 451 450 0 
2 440 448 3 454 455 459 
3 450 453 451 0 
3 450 451 453 0 
2 441 448 2 457 458 
3 449 446 456 0 
3 446 449 456 0 
3 443 453 447 0 
0 3 461 463 472 
1 460 3 464 465 466 
0 3 463 472 476 
2 460 462 3 464 465 466 
2 463 461 3 467 468 469 
2 463 461 3 467 468 469 
2 463 461 3 467 468 469 
3 464 466 465 3 470 471 479 
3 465 464 466 3 470 471 474 
3 465 466 464 2 470 474 
3 467 469 468 1 478 
2 467 468 3 475 477 478 
2 460 462 2 475 477 
0 3 474 476 478 
3 468 473 469 3 475 477 479 
3 471 472 474 0 
2 462 473 1 479 
3 474 471 472 0 
3 470 471 473 0 
3 467 476 474 0 
0 3 483 484 486 
0 3 483 484 486 
0 3 483 484 486 
3 480 481 482 3 485 487 489 
3 480 481 482 3 485 487 489 
2 484 483 3 488 492 495 
3 481 480 482 3 487 489 496 
3 483 484 486 3 488 492 495 
2 487 485 2 490 491 
3 483 484 486 3 490 491 492 
2 488 489 3 493 498 499 
2 488 489 1 493 
3 485 489 487 3 493 498 499 
3 491 492 490 1 494 
1 493 1 497 
2 487 485 3 497 498 499 
1 486 1 497 
3 494 495 496 0 
3 490 495 492 0 
3 490 492 495 0 
0 3 503 504 505 
0 3 503 504 505 
0 3 503 504 505 
3 501 502 500 3 506 507 508 
3 500 502 501 3 506 507 508 
3 500 501 502 3 506 507 508 
3 505 504 503 3 509 510 511 
3 503 504 505 2 510 511 
3 505 503 504 3 509 510 511 
2 506 508 1 512 
3 508 506 507 3 512 513 514 
3 507 508 506 3 512 513 514 
3 510 511 509 3 515 516 517 
2 511 510 3 515 516 517 
2 511 510 2 516 517 
2 512 513 1 518 
3 514 512 513 1 518 
3 514 512 513 1 518 
3 517 516 515 1 519 
1 518 0 
0 3 521 528 530 
1 520 3 522 533 534 
1 521 2 523 531 
1 522 3 525 526 536 
0 3 525 526 528 
2 523 524 3 527 529 539 
2 523 524 2 527 529 
2 526 525 3 532 535 538 
2 520 524 3 529 531 533 
3 526 525 528 3 532 535 537 
1 520 3 531 532 533 
3 528 522 530 3 535 536 539 
3 530 527 529 0 
3 521 530 528 3 537 538 539 
1 521 2 536 537 
3 529 531 527 0 
3 523 531 534 1 538 
3 529 533 534 0 
3 533 527 536 0 
3 533 531 525 0 
0 3 541 543 546 
1 540 3 542 544 557 
1 541 3 547 548 551 
1 540 3 544 547 557 
2 541 543 3 548 549 551 
0 3 546 547 548 
2 540 545 3 549 550 551 
3 542 545 543 3 549 550 556 
3 544 545 542 3 550 556 558 
3 544 547 546 3 552 553 554 
3 548 546 547 3 552 553 554 
3 544 546 542 3 552 553 554 
3 550 551 549 2 555 559 
3 550 551 549 1 555 
3 550 549 551 2 555 559 
3 552 553 554 0 
2 547 548 0 
2 541 543 1 559 
1 548 0 
3 557 554 552 0 
0 3 561 568 573 
1 560 3 563 564 570 
0 3 563 564 568 
2 561 562 2 565 576 
2 562 561 2 565 576 
2 563 564 3 567 574 575 
0 3 567 568 573 
2 565 566 1 569 
3 560 566 562 3 569 570 574 
2 567 568 2 571 572 
2 561 568 3 571 572 575 
2 569 570 1 577 
2 569 570 1 577 
2 560 566 3 574 575 576 
3 565 568 573 1 577 
3 570 565 573 2 578 579 
3 563 564 573 2 578 579 
3 571 572 574 2 578 579 
3 577 576 575 0 
3 577 576 575 0 
0 3 582 583 586 
0 3 582 583 586 
2 580 581 3 585 587 588 
2 581 580 2 585 588 
0 3 585 586 587 
3 583 582 584 3 589 590 592 
3 584 581 580 3 588 590 592 
2 582 584 3 589 590 592 
3 582 583 586 3 589 593 594 
3 588 587 585 3 591 595 596 
3 587 585 586 3 591 593 594 
2 590 589 2 597 598 
3 587 586 585 3 593 594 595 
3 592 590 588 1 596 
3 592 588 590 2 596 597 
2 592 589 2 597 598 
3 589 594 593 1 598 
3 591 595 594 1 599 
3 595 591 596 1 599 
2 598 597 0 
